instances_and_solutions/tournament/eprime/param/circ8bbal.dzn.param
language ESSENCE' 1.0
letting nbTeams  =  8

letting pv  =  [[
2, 1, 1, 2, 2, 2, 2, 1],[
2, 2, 2, 1, 2, 1, 2, 1],[
2, 1, 2, 2, 1, 2, 1, 1],[
1, 2, 1, 2, 2, 1, 1, 2],[
1, 1, 2, 1, 2, 2, 1, 2],[
1, 2, 1, 2, 1, 2, 2, 2],[
1, 1, 2, 2, 2, 1, 2, 2],[
2, 2, 2, 1, 1, 1, 1, 2]]

