instances_and_solutions/tournament/dzn/solutions/circ8bbal.dzn.txt
{"type": "statistics", "statistics": {"paths": 0, "flatBoolVars": 336, "flatIntVars": 329, "flatBoolConstraints": 224, "flatIntConstraints": 625, "evaluatedHalfReifiedConstraints": 336, "method": "minimize", "flatTime": 0.745605}}
{"type": "comment", "comment": "% Pruned 49999 learnt clauses"}
{"type": "comment", "comment": "% Pruned 49997 learnt clauses"}
{"type": "comment", "comment": "% Pruned 50000 learnt clauses"}
{"type": "comment", "comment": "% Pruned 49999 learnt clauses"}
{"type": "comment", "comment": "% Pruned 49998 learnt clauses"}
{"type": "comment", "comment": "% Pruned 49997 learnt clauses"}
{"type": "comment", "comment": "% Pruned 49996 learnt clauses"}
{"type": "comment", "comment": "% Pruned 49995 learnt clauses"}
{"type": "comment", "comment": "% Pruned 49999 learnt clauses"}
{"type": "comment", "comment": "% Pruned 49998 learnt clauses"}
{"type": "comment", "comment": "% Pruned 49997 learnt clauses"}
{"type": "comment", "comment": "% Pruned 49996 learnt clauses"}
{"type": "comment", "comment": "% Pruned 49995 learnt clauses"}
{"type": "comment", "comment": "% Pruned 49994 learnt clauses"}
{"type": "comment", "comment": "% Pruned 49997 learnt clauses"}
{"type": "comment", "comment": "% Pruned 49997 learnt clauses"}
{"type": "comment", "comment": "% Pruned 49996 learnt clauses"}
{"type": "comment", "comment": "% Pruned 49995 learnt clauses"}
{"type": "comment", "comment": "% Pruned 49994 learnt clauses"}
{"type": "comment", "comment": "% Pruned 49997 learnt clauses"}
{"type": "comment", "comment": "% Pruned 49996 learnt clauses"}
{"type": "comment", "comment": "% Pruned 49995 learnt clauses"}
{"type": "comment", "comment": "% Pruned 49994 learnt clauses"}
{"type": "comment", "comment": "% Pruned 49993 learnt clauses"}
{"type": "comment", "comment": "% Pruned 49996 learnt clauses"}
{"type": "comment", "comment": "% Pruned 49994 learnt clauses"}
{"type": "comment", "comment": "% Pruned 49993 learnt clauses"}
{"type": "comment", "comment": "% Pruned 49992 learnt clauses"}
{"type": "comment", "comment": "% Pruned 50000 learnt clauses"}
{"type": "comment", "comment": "% Pruned 49999 learnt clauses"}
{"type": "comment", "comment": "% Pruned 49998 learnt clauses"}
{"type": "comment", "comment": "% Pruned 49999 learnt clauses"}
{"type": "comment", "comment": "% Pruned 49998 learnt clauses"}
{"type": "comment", "comment": "% Pruned 49997 learnt clauses"}
{"type": "comment", "comment": "% Pruned 49995 learnt clauses"}
{"type": "comment", "comment": "% Pruned 49998 learnt clauses"}
{"type": "comment", "comment": "% Pruned 49996 learnt clauses"}
{"type": "comment", "comment": "% Pruned 49994 learnt clauses"}
{"type": "comment", "comment": "% Pruned 49996 learnt clauses"}
{"type": "comment", "comment": "% Pruned 49995 learnt clauses"}
{"type": "comment", "comment": "% Pruned 49993 learnt clauses"}
{"type": "comment", "comment": "% Pruned 49996 learnt clauses"}
{"type": "comment", "comment": "% Pruned 49995 learnt clauses"}
{"type": "comment", "comment": "% Pruned 49992 learnt clauses"}
{"type": "comment", "comment": "% Pruned 49995 learnt clauses"}
{"type": "comment", "comment": "% Pruned 49992 learnt clauses"}
{"type": "comment", "comment": "% Pruned 49999 learnt clauses"}
{"type": "comment", "comment": "% Pruned 49998 learnt clauses"}
{"type": "comment", "comment": "% Pruned 49997 learnt clauses"}
{"type": "comment", "comment": "% Pruned 49996 learnt clauses"}
{"type": "comment", "comment": "% Pruned 49998 learnt clauses"}
{"type": "comment", "comment": "% Pruned 49997 learnt clauses"}
{"type": "comment", "comment": "% Pruned 49996 learnt clauses"}
{"type": "comment", "comment": "% Pruned 49994 learnt clauses"}
{"type": "comment", "comment": "% Pruned 49997 learnt clauses"}
{"type": "comment", "comment": "% Pruned 49996 learnt clauses"}
{"type": "comment", "comment": "% Pruned 49995 learnt clauses"}
{"type": "comment", "comment": "% Pruned 49996 learnt clauses"}
{"type": "comment", "comment": "% Pruned 49994 learnt clauses"}
{"type": "comment", "comment": "% Pruned 49995 learnt clauses"}
{"type": "comment", "comment": "% Pruned 49994 learnt clauses"}
{"type": "comment", "comment": "% Pruned 49993 learnt clauses"}
{"type": "comment", "comment": "% Pruned 49994 learnt clauses"}
{"type": "comment", "comment": "% Pruned 49992 learnt clauses"}
{"type": "comment", "comment": "% Pruned 49998 learnt clauses"}
{"type": "comment", "comment": "% Pruned 49997 learnt clauses"}
{"type": "comment", "comment": "% Pruned 49996 learnt clauses"}
{"type": "comment", "comment": "% Pruned 49994 learnt clauses"}
{"type": "comment", "comment": "% Pruned 49997 learnt clauses"}
{"type": "comment", "comment": "% Pruned 49995 learnt clauses"}
{"type": "comment", "comment": "% Pruned 49996 learnt clauses"}
{"type": "comment", "comment": "% Pruned 49995 learnt clauses"}
{"type": "comment", "comment": "% Pruned 49993 learnt clauses"}
{"type": "comment", "comment": "% Pruned 49995 learnt clauses"}
{"type": "comment", "comment": "% Pruned 49994 learnt clauses"}
{"type": "comment", "comment": "% Pruned 49993 learnt clauses"}
{"type": "comment", "comment": "% Pruned 49993 learnt clauses"}
{"type": "comment", "comment": "% Pruned 49997 learnt clauses"}
{"type": "comment", "comment": "% Pruned 49996 learnt clauses"}
{"type": "comment", "comment": "% Pruned 49996 learnt clauses"}
{"type": "comment", "comment": "% Pruned 49995 learnt clauses"}
{"type": "comment", "comment": "% Pruned 49995 learnt clauses"}
{"type": "comment", "comment": "% Pruned 49994 learnt clauses"}
{"type": "comment", "comment": "% Pruned 49993 learnt clauses"}
{"type": "statistics", "statistics": {"nodes": 4260064, "failures": 4257471, "restarts": 7, "variables": 11714, "intVars": 385, "boolVariables": 11327, "propagators": 491, "propagations": 1241210703, "peakDepth": 24, "nogoods": 4257471, "backjumps": 2436, "peakMem": 0.0, "time": 600.013, "initTime": 0.013, "solveTime": 600.0, "objective": 80, "optTime": 189.736, "baseMem": 0.0, "trailMem": 0.04, "randomSeed": 1667826199}}
{"type": "solution", "output": {"default": "%% SCHEDULE\n%%  2  8 @5 @6 @7  3 @4 \n%% @1  6  8 @7 @5  4 @3 \n%% @4  5  7  8 @6 @1  2 \n%%  3  7  6 @5 @8 @2  1 \n%%  7 @3  1  4  2 @6 @8 \n%% @8 @2 @4  1  3  5 @7 \n%% @5 @4 @3  2  1 @8  6 \n%%  6 @1 @2 @3  4  7  5 \nopponent = array2d(1..8, 1..7, [2, 8, 5, 6, 7, 3, 4, 1, 6, 8, 7, 5, 4, 3, 4, 5, 7, 8, 6, 1, 2, 3, 7, 6, 5, 8, 2, 1, 7, 3, 1, 4, 2, 6, 8, 8, 2, 4, 1, 3, 5, 7, 5, 4, 3, 2, 1, 8, 6, 6, 1, 2, 3, 4, 7, 5]);\nvenue = array2d(1..8, 1..7, [1, 1, 2, 2, 2, 1, 2, 2, 1, 1, 2, 2, 1, 2, 2, 1, 1, 1, 2, 2, 1, 1, 1, 1, 2, 2, 2, 1, 1, 2, 1, 1, 1, 2, 2, 2, 2, 2, 1, 1, 1, 2, 2, 2, 2, 1, 1, 2, 1, 1, 2, 2, 2, 1, 1, 1]);\ntravel = array2d(1..8, 1..8, [0, 0, 4, 1, 1, 2, 3, 3, 1, 1, 0, 3, 2, 3, 1, 1, 1, 1, 0, 0, 3, 3, 2, 0, 0, 0, 0, 1, 3, 2, 2, 0, 0, 2, 2, 0, 0, 1, 2, 3, 2, 2, 2, 2, 0, 0, 1, 1, 2, 1, 1, 4, 0, 1, 1, 0, 0, 1, 1, 1, 3, 0, 0, 0]);\nobjective = 80;\n", "raw": "%% SCHEDULE\n%%  2  8 @5 @6 @7  3 @4 \n%% @1  6  8 @7 @5  4 @3 \n%% @4  5  7  8 @6 @1  2 \n%%  3  7  6 @5 @8 @2  1 \n%%  7 @3  1  4  2 @6 @8 \n%% @8 @2 @4  1  3  5 @7 \n%% @5 @4 @3  2  1 @8  6 \n%%  6 @1 @2 @3  4  7  5 \nopponent = array2d(1..8, 1..7, [2, 8, 5, 6, 7, 3, 4, 1, 6, 8, 7, 5, 4, 3, 4, 5, 7, 8, 6, 1, 2, 3, 7, 6, 5, 8, 2, 1, 7, 3, 1, 4, 2, 6, 8, 8, 2, 4, 1, 3, 5, 7, 5, 4, 3, 2, 1, 8, 6, 6, 1, 2, 3, 4, 7, 5]);\nvenue = array2d(1..8, 1..7, [1, 1, 2, 2, 2, 1, 2, 2, 1, 1, 2, 2, 1, 2, 2, 1, 1, 1, 2, 2, 1, 1, 1, 1, 2, 2, 2, 1, 1, 2, 1, 1, 1, 2, 2, 2, 2, 2, 1, 1, 1, 2, 2, 2, 2, 1, 1, 2, 1, 1, 2, 2, 2, 1, 1, 1]);\ntravel = array2d(1..8, 1..8, [0, 0, 4, 1, 1, 2, 3, 3, 1, 1, 0, 3, 2, 3, 1, 1, 1, 1, 0, 0, 3, 3, 2, 0, 0, 0, 0, 1, 3, 2, 2, 0, 0, 2, 2, 0, 0, 1, 2, 3, 2, 2, 2, 2, 0, 0, 1, 1, 2, 1, 1, 4, 0, 1, 1, 0, 0, 1, 1, 1, 3, 0, 0, 0]);\nobjective = 80;\n", "json": {  "opponent" : [[2, 8, 5, 6, 7, 3, 4], [1, 6, 8, 7, 5, 4, 3], [4, 5, 7, 8, 6, 1, 2], [3, 7, 6, 5, 8, 2, 1], [7, 3, 1, 4, 2, 6, 8], [8, 2, 4, 1, 3, 5, 7], [5, 4, 3, 2, 1, 8, 6], [6, 1, 2, 3, 4, 7, 5]],  "venue" : [[1, 1, 2, 2, 2, 1, 2], [2, 1, 1, 2, 2, 1, 2], [2, 1, 1, 1, 2, 2, 1], [1, 1, 1, 2, 2, 2, 1], [1, 2, 1, 1, 1, 2, 2], [2, 2, 2, 1, 1, 1, 2], [2, 2, 2, 1, 1, 2, 1], [1, 2, 2, 2, 1, 1, 1]],  "travel" : [[0, 0, 4, 1, 1, 2, 3, 3], [1, 1, 0, 3, 2, 3, 1, 1], [1, 1, 0, 0, 3, 3, 2, 0], [0, 0, 0, 1, 3, 2, 2, 0], [0, 2, 2, 0, 0, 1, 2, 3], [2, 2, 2, 2, 0, 0, 1, 1], [2, 1, 1, 4, 0, 1, 1, 0], [0, 1, 1, 1, 3, 0, 0, 0]],  "objective" : 80}}, "sections": ["default", "raw", "json"]}
{"type": "comment", "comment": "% Time limit exceeded!"}
{"type": "statistics", "statistics": {"nSolutions": 1}}
